sat-competition-2018/differences/benchmarks-theta/cms-scheel-sha3-differences-w1-rt-i8-o4.cnf
c This is a CNF SAT formula in the DIMACS CNF format,
c produced with the bc2cnf translator by Tommi Junttila;
c see http://users.ics.aalto.fi/tjunttil/circuits/index.html
c coutput <-> 344
c cinput <-> 395
c h2out24 <-> 446
c h2r0t24 <-> 446
c h2out23 <-> 447
c h2r0t23 <-> 447
c h2out22 <-> 448
c h2r0t22 <-> 448
c h2out21 <-> 449
c h2r0t21 <-> 449
c h2out20 <-> 450
c h2r0t20 <-> 450
c h2out19 <-> 451
c h2r0t19 <-> 451
c h2out18 <-> 452
c h2r0t18 <-> 452
c h2out17 <-> 453
c h2r0t17 <-> 453
c h2out16 <-> 454
c h2r0t16 <-> 454
c h2out15 <-> 455
c h2r0t15 <-> 455
c h2out14 <-> 456
c h2r0t14 <-> 456
c h2out13 <-> 457
c h2r0t13 <-> 457
c h2out12 <-> 458
c h2r0t12 <-> 458
c h2out11 <-> 459
c h2r0t11 <-> 459
c h2out10 <-> 460
c h2r0t10 <-> 460
c h2out9 <-> 461
c h2r0t9 <-> 461
c h2out8 <-> 462
c h2r0t8 <-> 462
c h2out7 <-> 463
c h2r0t7 <-> 463
c h2out6 <-> 464
c h2r0t6 <-> 464
c h2out5 <-> 465
c h2r0t5 <-> 465
c h2out4 <-> 466
c h2r0t4 <-> 466
c h2out3 <-> 468
c h2r0t3 <-> 468
c h2out2 <-> 470
c h2r0t2 <-> 470
c h2in23 <-> 474
c h2in18 <-> 475
c h2in13 <-> 477
c h2in8 <-> 479
c h2in3 <-> 480
c h2out1 <-> 481
c h2r0t1 <-> 481
c h2in22 <-> 485
c h2in17 <-> 486
c h2in12 <-> 488
c h2in7 <-> 490
c h2in2 <-> 491
c h2in20 <-> 494
c h2in15 <-> 495
c h2in10 <-> 497
c h2in5 <-> 499
c h2out0 <-> 500
c h2r0t0 <-> 500
c h2in21 <-> 504
c h2in16 <-> 505
c h2in11 <-> 507
c h2in6 <-> 509
c h2in1 <-> 510
c h2in24 <-> 513
c h2in19 <-> 514
c h2in14 <-> 516
c h2in9 <-> 518
c h2in4 <-> 519
c h2in0 <-> 520
c h1out24 <-> 521
c h1r0t24 <-> 521
c h1out23 <-> 522
c h1r0t23 <-> 522
c h1out22 <-> 523
c h1r0t22 <-> 523
c h1out21 <-> 524
c h1r0t21 <-> 524
c h1out20 <-> 525
c h1r0t20 <-> 525
c h1out19 <-> 526
c h1r0t19 <-> 526
c h1out18 <-> 527
c h1r0t18 <-> 527
c h1out17 <-> 528
c h1r0t17 <-> 528
c h1out16 <-> 529
c h1r0t16 <-> 529
c h1out15 <-> 530
c h1r0t15 <-> 530
c h1out14 <-> 531
c h1r0t14 <-> 531
c h1out13 <-> 532
c h1r0t13 <-> 532
c h1out12 <-> 533
c h1r0t12 <-> 533
c h1out11 <-> 534
c h1r0t11 <-> 534
c h1out10 <-> 535
c h1r0t10 <-> 535
c h1out9 <-> 536
c h1r0t9 <-> 536
c h1out8 <-> 537
c h1r0t8 <-> 537
c h1out7 <-> 538
c h1r0t7 <-> 538
c h1out6 <-> 539
c h1r0t6 <-> 539
c h1out5 <-> 540
c h1r0t5 <-> 540
c h1out4 <-> 541
c h1r0t4 <-> 541
c h1out3 <-> 543
c h1r0t3 <-> 543
c h1out2 <-> 545
c h1r0t2 <-> 545
c h1in23 <-> 549
c h1in18 <-> 550
c h1in13 <-> 552
c h1in8 <-> 554
c h1in3 <-> 555
c h1out1 <-> 556
c h1r0t1 <-> 556
c h1in22 <-> 560
c h1in17 <-> 561
c h1in12 <-> 563
c h1in7 <-> 565
c h1in2 <-> 566
c h1in20 <-> 569
c h1in15 <-> 570
c h1in10 <-> 572
c h1in5 <-> 574
c h1out0 <-> 575
c h1r0t0 <-> 575
c h1in21 <-> 579
c h1in16 <-> 580
c h1in11 <-> 582
c h1in6 <-> 584
c h1in1 <-> 585
c h1in24 <-> 588
c h1in19 <-> 589
c h1in14 <-> 591
c h1in9 <-> 593
c h1in4 <-> 594
c h1in0 <-> 595
p cnf 595 1834
1 -2 0
1 -21 0
-1 21 2 0
-2 3 0
-2 4 0
2 -4 -3 0
3 37 0
-3 -37 0
-4 5 0
-4 6 0
4 -6 -5 0
5 38 0
-5 -38 0
-6 7 0
-6 8 0
6 -8 -7 0
7 40 0
-7 -40 0
8 -9 0
8 -10 0
-8 10 9 0
-9 12 0
-9 13 0
9 -13 -12 0
-10 11 0
-10 35 0
10 -35 -11 0
11 42 0
-11 -42 0
12 42 35 0
12 -42 -35 0
-12 42 -35 0
-12 -42 35 0
13 -14 0
13 -15 0
-13 15 14 0
-14 17 0
-14 18 0
14 -18 -17 0
-15 16 0
-15 36 0
15 -36 -16 0
16 44 0
-16 -44 0
17 44 36 0
17 -44 -36 0
-17 44 -36 0
-17 -44 36 0
-18 19 0
-18 36 0
18 -36 -19 0
19 46 0
-19 -46 0
20 46 36 0
20 -46 -36 0
-20 46 -36 0
-20 -46 36 0
-21 3 0
-21 5 0
-21 7 0
-21 12 0
-21 17 0
-21 20 0
21 -20 -17 -12 -7 -5 -3 0
22 -21 0
22 -23 0
-22 23 21 0
23 -24 0
23 -37 0
-23 37 24 0
24 -25 0
24 -38 0
-24 38 25 0
25 -26 0
25 -40 0
-25 40 26 0
26 -27 0
26 -28 0
-26 28 27 0
-27 12 0
-27 30 0
27 -30 -12 0
-28 29 0
-28 42 0
28 -42 -29 0
29 35 0
-29 -35 0
30 -31 0
30 -32 0
-30 32 31 0
-31 17 0
-31 34 0
31 -34 -17 0
-32 33 0
-32 44 0
32 -44 -33 0
33 36 0
-33 -36 0
-34 33 0
-34 46 0
34 -46 -33 0
35 0
-36 0
-37 39 0
-37 47 0
37 -47 -39 0
38 47 -39 0
38 -47 39 0
-38 47 39 0
-38 -47 -39 0
-39 41 0
-39 49 0
39 -49 -41 0
40 49 -41 0
40 -49 41 0
-40 49 41 0
-40 -49 -41 0
-41 43 0
-41 54 0
41 -54 -43 0
42 54 -43 0
42 -54 43 0
-42 54 43 0
-42 -54 -43 0
-43 45 0
-43 59 0
43 -59 -45 0
44 59 -45 0
44 -59 45 0
-44 59 45 0
-44 -59 -45 0
-45 63 0
-45 345 0
45 -345 -63 0
46 345 -63 0
46 -345 63 0
-46 345 63 0
-46 -345 -63 0
47 -48 0
47 -50 0
-47 50 48 0
-48 51 0
-48 52 0
48 -52 -51 0
49 52 -51 0
49 -52 51 0
-49 52 51 0
-49 -52 -51 0
-50 64 0
-50 76 0
50 -76 -64 0
51 76 -64 0
51 -76 64 0
-51 76 64 0
-51 -76 -64 0
52 -53 0
52 -55 0
-52 55 53 0
-53 56 0
-53 57 0
53 -57 -56 0
54 57 -56 0
54 -57 56 0
-54 57 56 0
-54 -57 -56 0
-55 66 0
-55 78 0
55 -78 -66 0
56 78 -66 0
56 -78 66 0
-56 78 66 0
-56 -78 -66 0
57 -58 0
57 -60 0
-57 60 58 0
-58 61 0
-58 62 0
58 -62 -61 0
59 62 -61 0
59 -62 61 0
-59 62 61 0
-59 -62 -61 0
-60 71 0
-60 83 0
60 -83 -71 0
61 83 -71 0
61 -83 71 0
-61 83 71 0
-61 -83 -71 0
-62 75 0
-62 87 0
62 -87 -75 0
63 87 -75 0
63 -87 75 0
-63 87 75 0
-63 -87 -75 0
64 -65 0
64 -67 0
-64 67 65 0
-65 68 0
-65 69 0
65 -69 -68 0
66 69 -68 0
66 -69 68 0
-66 69 68 0
-66 -69 -68 0
-67 88 0
-67 95 0
67 -95 -88 0
68 95 -88 0
68 -95 88 0
-68 95 88 0
-68 -95 -88 0
69 -70 0
69 -72 0
-69 72 70 0
-70 73 0
-70 74 0
70 -74 -73 0
71 74 -73 0
71 -74 73 0
-71 74 73 0
-71 -74 -73 0
-72 90 0
-72 97 0
72 -97 -90 0
73 97 -90 0
73 -97 90 0
-73 97 90 0
-73 -97 -90 0
-74 94 0
-74 101 0
74 -101 -94 0
75 101 -94 0
75 -101 94 0
-75 101 94 0
-75 -101 -94 0
76 -77 0
76 -79 0
-76 79 77 0
-77 80 0
-77 81 0
77 -81 -80 0
78 81 -80 0
78 -81 80 0
-78 81 80 0
-78 -81 -80 0
-79 102 0
-79 109 0
79 -109 -102 0
80 109 -102 0
80 -109 102 0
-80 109 102 0
-80 -109 -102 0
81 -82 0
81 -84 0
-81 84 82 0
-82 85 0
-82 86 0
82 -86 -85 0
83 86 -85 0
83 -86 85 0
-83 86 85 0
-83 -86 -85 0
-84 104 0
-84 111 0
84 -111 -104 0
85 111 -104 0
85 -111 104 0
-85 111 104 0
-85 -111 -104 0
-86 108 0
-86 115 0
86 -115 -108 0
87 115 -108 0
87 -115 108 0
-87 115 108 0
-87 -115 -108 0
88 -89 0
88 -91 0
-88 91 89 0
-89 92 0
-89 93 0
89 -93 -92 0
90 93 -92 0
90 -93 92 0
-90 93 92 0
-90 -93 -92 0
-91 118 0
-91 125 0
91 -125 -118 0
92 125 -118 0
92 -125 118 0
-92 125 118 0
-92 -125 -118 0
-93 116 0
-93 123 0
93 -123 -116 0
94 123 -116 0
94 -123 116 0
-94 123 116 0
-94 -123 -116 0
95 -96 0
95 -98 0
-95 98 96 0
-96 99 0
-96 100 0
96 -100 -99 0
97 100 -99 0
97 -100 99 0
-97 100 99 0
-97 -100 -99 0
-98 132 0
-98 139 0
98 -139 -132 0
99 139 -132 0
99 -139 132 0
-99 139 132 0
-99 -139 -132 0
-100 130 0
-100 137 0
100 -137 -130 0
101 137 -130 0
101 -137 130 0
-101 137 130 0
-101 -137 -130 0
102 -103 0
102 -105 0
-102 105 103 0
-103 106 0
-103 107 0
103 -107 -106 0
104 107 -106 0
104 -107 106 0
-104 107 106 0
-104 -107 -106 0
-105 146 0
-105 153 0
105 -153 -146 0
106 153 -146 0
106 -153 146 0
-106 153 146 0
-106 -153 -146 0
-107 144 0
-107 151 0
107 -151 -144 0
108 151 -144 0
108 -151 144 0
-108 151 144 0
-108 -151 -144 0
109 -110 0
109 -112 0
-109 112 110 0
-110 113 0
-110 114 0
110 -114 -113 0
111 114 -113 0
111 -114 113 0
-111 114 113 0
-111 -114 -113 0
-112 160 0
-112 167 0
112 -167 -160 0
113 167 -160 0
113 -167 160 0
-113 167 160 0
-113 -167 -160 0
-114 158 0
-114 165 0
114 -165 -158 0
115 165 -158 0
115 -165 158 0
-115 165 158 0
-115 -165 -158 0
116 351 -117 0
116 -351 117 0
-116 351 117 0
-116 -351 -117 0
117 349 -347 0
117 -349 347 0
-117 349 347 0
-117 -349 -347 0
118 -119 0
118 -120 0
-118 120 119 0
-119 349 0
-119 351 0
119 -351 -349 0
120 -121 0
120 -122 0
-120 122 121 0
-121 347 0
-121 351 0
121 -351 -347 0
-122 347 0
-122 349 0
122 -349 -347 0
123 357 -124 0
123 -357 124 0
-123 357 124 0
-123 -357 -124 0
124 355 -353 0
124 -355 353 0
-124 355 353 0
-124 -355 -353 0
125 -126 0
125 -127 0
-125 127 126 0
-126 355 0
-126 357 0
126 -357 -355 0
127 -128 0
127 -129 0
-127 129 128 0
-128 353 0
-128 357 0
128 -357 -353 0
-129 353 0
-129 355 0
129 -355 -353 0
130 363 -131 0
130 -363 131 0
-130 363 131 0
-130 -363 -131 0
131 361 -359 0
131 -361 359 0
-131 361 359 0
-131 -361 -359 0
132 -133 0
132 -134 0
-132 134 133 0
-133 361 0
-133 363 0
133 -363 -361 0
134 -135 0
134 -136 0
-134 136 135 0
-135 359 0
-135 363 0
135 -363 -359 0
-136 359 0
-136 361 0
136 -361 -359 0
137 369 -138 0
137 -369 138 0
-137 369 138 0
-137 -369 -138 0
138 367 -365 0
138 -367 365 0
-138 367 365 0
-138 -367 -365 0
139 -140 0
139 -141 0
-139 141 140 0
-140 367 0
-140 369 0
140 -369 -367 0
141 -142 0
141 -143 0
-141 143 142 0
-142 365 0
-142 369 0
142 -369 -365 0
-143 365 0
-143 367 0
143 -367 -365 0
144 375 -145 0
144 -375 145 0
-144 375 145 0
-144 -375 -145 0
145 373 -371 0
145 -373 371 0
-145 373 371 0
-145 -373 -371 0
146 -147 0
146 -148 0
-146 148 147 0
-147 373 0
-147 375 0
147 -375 -373 0
148 -149 0
148 -150 0
-148 150 149 0
-149 371 0
-149 375 0
149 -375 -371 0
-150 371 0
-150 373 0
150 -373 -371 0
151 381 -152 0
151 -381 152 0
-151 381 152 0
-151 -381 -152 0
152 379 -377 0
152 -379 377 0
-152 379 377 0
-152 -379 -377 0
153 -154 0
153 -155 0
-153 155 154 0
-154 379 0
-154 381 0
154 -381 -379 0
155 -156 0
155 -157 0
-155 157 156 0
-156 377 0
-156 381 0
156 -381 -377 0
-157 377 0
-157 379 0
157 -379 -377 0
158 387 -159 0
158 -387 159 0
-158 387 159 0
-158 -387 -159 0
159 385 -383 0
159 -385 383 0
-159 385 383 0
-159 -385 -383 0
160 -161 0
160 -162 0
-160 162 161 0
-161 385 0
-161 387 0
161 -387 -385 0
162 -163 0
162 -164 0
-162 164 163 0
-163 383 0
-163 387 0
163 -387 -383 0
-164 383 0
-164 385 0
164 -385 -383 0
165 393 -166 0
165 -393 166 0
-165 393 166 0
-165 -393 -166 0
166 391 -389 0
166 -391 389 0
-166 391 389 0
-166 -391 -389 0
167 -168 0
167 -169 0
-167 169 168 0
-168 391 0
-168 393 0
168 -393 -391 0
169 -170 0
169 -171 0
-169 171 170 0
-170 389 0
-170 393 0
170 -393 -389 0
-171 389 0
-171 391 0
171 -391 -389 0
172 -173 0
172 -195 0
-172 195 173 0
-173 174 0
-173 175 0
173 -175 -174 0
174 209 0
-174 -209 0
-175 176 0
-175 177 0
175 -177 -176 0
176 210 0
-176 -210 0
177 -178 0
177 -179 0
-177 179 178 0
-178 181 0
-178 182 0
178 -182 -181 0
-179 35 0
-179 180 0
179 -180 -35 0
180 212 0
-180 -212 0
181 212 35 0
181 -212 -35 0
-181 212 -35 0
-181 -212 35 0
182 -183 0
182 -184 0
-182 184 183 0
-183 186 0
-183 187 0
183 -187 -186 0
-184 36 0
-184 185 0
184 -185 -36 0
185 214 0
-185 -214 0
186 214 36 0
186 -214 -36 0
-186 214 -36 0
-186 -214 36 0
187 -188 0
187 -189 0
-187 189 188 0
-188 191 0
-188 192 0
188 -192 -191 0
-189 36 0
-189 190 0
189 -190 -36 0
190 216 0
-190 -216 0
191 216 36 0
191 -216 -36 0
-191 216 -36 0
-191 -216 36 0
-192 36 0
-192 193 0
192 -193 -36 0
193 218 0
-193 -218 0
194 218 36 0
194 -218 -36 0
-194 218 -36 0
-194 -218 36 0
-195 174 0
-195 176 0
-195 181 0
-195 186 0
-195 191 0
-195 194 0
195 -194 -191 -186 -181 -176 -174 0
196 -195 0
196 -197 0
-196 197 195 0
197 -198 0
197 -209 0
-197 209 198 0
198 -199 0
198 -210 0
-198 210 199 0
199 -200 0
199 -201 0
-199 201 200 0
-200 181 0
-200 202 0
200 -202 -181 0
-201 29 0
-201 212 0
201 -212 -29 0
202 -203 0
202 -204 0
-202 204 203 0
-203 186 0
-203 205 0
203 -205 -186 0
-204 33 0
-204 214 0
204 -214 -33 0
205 -206 0
205 -207 0
-205 207 206 0
-206 191 0
-206 208 0
206 -208 -191 0
-207 33 0
-207 216 0
207 -216 -33 0
-208 33 0
-208 218 0
208 -218 -33 0
-209 211 0
-209 219 0
209 -219 -211 0
210 219 -211 0
210 -219 211 0
-210 219 211 0
-210 -219 -211 0
-211 213 0
-211 221 0
211 -221 -213 0
212 221 -213 0
212 -221 213 0
-212 221 213 0
-212 -221 -213 0
-213 215 0
-213 226 0
213 -226 -215 0
214 226 -215 0
214 -226 215 0
-214 226 215 0
-214 -226 -215 0
-215 217 0
-215 231 0
215 -231 -217 0
216 231 -217 0
216 -231 217 0
-216 231 217 0
-216 -231 -217 0
-217 235 0
-217 396 0
217 -396 -235 0
218 396 -235 0
218 -396 235 0
-218 396 235 0
-218 -396 -235 0
219 -220 0
219 -222 0
-219 222 220 0
-220 223 0
-220 224 0
220 -224 -223 0
221 224 -223 0
221 -224 223 0
-221 224 223 0
-221 -224 -223 0
-222 236 0
-222 248 0
222 -248 -236 0
223 248 -236 0
223 -248 236 0
-223 248 236 0
-223 -248 -236 0
224 -225 0
224 -227 0
-224 227 225 0
-225 228 0
-225 229 0
225 -229 -228 0
226 229 -228 0
226 -229 228 0
-226 229 228 0
-226 -229 -228 0
-227 238 0
-227 250 0
227 -250 -238 0
228 250 -238 0
228 -250 238 0
-228 250 238 0
-228 -250 -238 0
229 -230 0
229 -232 0
-229 232 230 0
-230 233 0
-230 234 0
230 -234 -233 0
231 234 -233 0
231 -234 233 0
-231 234 233 0
-231 -234 -233 0
-232 243 0
-232 255 0
232 -255 -243 0
233 255 -243 0
233 -255 243 0
-233 255 243 0
-233 -255 -243 0
-234 247 0
-234 259 0
234 -259 -247 0
235 259 -247 0
235 -259 247 0
-235 259 247 0
-235 -259 -247 0
236 -237 0
236 -239 0
-236 239 237 0
-237 240 0
-237 241 0
237 -241 -240 0
238 241 -240 0
238 -241 240 0
-238 241 240 0
-238 -241 -240 0
-239 260 0
-239 267 0
239 -267 -260 0
240 267 -260 0
240 -267 260 0
-240 267 260 0
-240 -267 -260 0
241 -242 0
241 -244 0
-241 244 242 0
-242 245 0
-242 246 0
242 -246 -245 0
243 246 -245 0
243 -246 245 0
-243 246 245 0
-243 -246 -245 0
-244 262 0
-244 269 0
244 -269 -262 0
245 269 -262 0
245 -269 262 0
-245 269 262 0
-245 -269 -262 0
-246 266 0
-246 273 0
246 -273 -266 0
247 273 -266 0
247 -273 266 0
-247 273 266 0
-247 -273 -266 0
248 -249 0
248 -251 0
-248 251 249 0
-249 252 0
-249 253 0
249 -253 -252 0
250 253 -252 0
250 -253 252 0
-250 253 252 0
-250 -253 -252 0
-251 274 0
-251 281 0
251 -281 -274 0
252 281 -274 0
252 -281 274 0
-252 281 274 0
-252 -281 -274 0
253 -254 0
253 -256 0
-253 256 254 0
-254 257 0
-254 258 0
254 -258 -257 0
255 258 -257 0
255 -258 257 0
-255 258 257 0
-255 -258 -257 0
-256 276 0
-256 283 0
256 -283 -276 0
257 283 -276 0
257 -283 276 0
-257 283 276 0
-257 -283 -276 0
-258 280 0
-258 287 0
258 -287 -280 0
259 287 -280 0
259 -287 280 0
-259 287 280 0
-259 -287 -280 0
260 -261 0
260 -263 0
-260 263 261 0
-261 264 0
-261 265 0
261 -265 -264 0
262 265 -264 0
262 -265 264 0
-262 265 264 0
-262 -265 -264 0
-263 290 0
-263 297 0
263 -297 -290 0
264 297 -290 0
264 -297 290 0
-264 297 290 0
-264 -297 -290 0
-265 288 0
-265 295 0
265 -295 -288 0
266 295 -288 0
266 -295 288 0
-266 295 288 0
-266 -295 -288 0
267 -268 0
267 -270 0
-267 270 268 0
-268 271 0
-268 272 0
268 -272 -271 0
269 272 -271 0
269 -272 271 0
-269 272 271 0
-269 -272 -271 0
-270 304 0
-270 311 0
270 -311 -304 0
271 311 -304 0
271 -311 304 0
-271 311 304 0
-271 -311 -304 0
-272 302 0
-272 309 0
272 -309 -302 0
273 309 -302 0
273 -309 302 0
-273 309 302 0
-273 -309 -302 0
274 -275 0
274 -277 0
-274 277 275 0
-275 278 0
-275 279 0
275 -279 -278 0
276 279 -278 0
276 -279 278 0
-276 279 278 0
-276 -279 -278 0
-277 318 0
-277 325 0
277 -325 -318 0
278 325 -318 0
278 -325 318 0
-278 325 318 0
-278 -325 -318 0
-279 316 0
-279 323 0
279 -323 -316 0
280 323 -316 0
280 -323 316 0
-280 323 316 0
-280 -323 -316 0
281 -282 0
281 -284 0
-281 284 282 0
-282 285 0
-282 286 0
282 -286 -285 0
283 286 -285 0
283 -286 285 0
-283 286 285 0
-283 -286 -285 0
-284 332 0
-284 339 0
284 -339 -332 0
285 339 -332 0
285 -339 332 0
-285 339 332 0
-285 -339 -332 0
-286 330 0
-286 337 0
286 -337 -330 0
287 337 -330 0
287 -337 330 0
-287 337 330 0
-287 -337 -330 0
288 402 -289 0
288 -402 289 0
-288 402 289 0
-288 -402 -289 0
289 400 -398 0
289 -400 398 0
-289 400 398 0
-289 -400 -398 0
290 -291 0
290 -292 0
-290 292 291 0
-291 400 0
-291 402 0
291 -402 -400 0
292 -293 0
292 -294 0
-292 294 293 0
-293 398 0
-293 402 0
293 -402 -398 0
-294 398 0
-294 400 0
294 -400 -398 0
295 408 -296 0
295 -408 296 0
-295 408 296 0
-295 -408 -296 0
296 406 -404 0
296 -406 404 0
-296 406 404 0
-296 -406 -404 0
297 -298 0
297 -299 0
-297 299 298 0
-298 406 0
-298 408 0
298 -408 -406 0
299 -300 0
299 -301 0
-299 301 300 0
-300 404 0
-300 408 0
300 -408 -404 0
-301 404 0
-301 406 0
301 -406 -404 0
302 414 -303 0
302 -414 303 0
-302 414 303 0
-302 -414 -303 0
303 412 -410 0
303 -412 410 0
-303 412 410 0
-303 -412 -410 0
304 -305 0
304 -306 0
-304 306 305 0
-305 412 0
-305 414 0
305 -414 -412 0
306 -307 0
306 -308 0
-306 308 307 0
-307 410 0
-307 414 0
307 -414 -410 0
-308 410 0
-308 412 0
308 -412 -410 0
309 420 -310 0
309 -420 310 0
-309 420 310 0
-309 -420 -310 0
310 418 -416 0
310 -418 416 0
-310 418 416 0
-310 -418 -416 0
311 -312 0
311 -313 0
-311 313 312 0
-312 418 0
-312 420 0
312 -420 -418 0
313 -314 0
313 -315 0
-313 315 314 0
-314 416 0
-314 420 0
314 -420 -416 0
-315 416 0
-315 418 0
315 -418 -416 0
316 426 -317 0
316 -426 317 0
-316 426 317 0
-316 -426 -317 0
317 424 -422 0
317 -424 422 0
-317 424 422 0
-317 -424 -422 0
318 -319 0
318 -320 0
-318 320 319 0
-319 424 0
-319 426 0
319 -426 -424 0
320 -321 0
320 -322 0
-320 322 321 0
-321 422 0
-321 426 0
321 -426 -422 0
-322 422 0
-322 424 0
322 -424 -422 0
323 432 -324 0
323 -432 324 0
-323 432 324 0
-323 -432 -324 0
324 430 -428 0
324 -430 428 0
-324 430 428 0
-324 -430 -428 0
325 -326 0
325 -327 0
-325 327 326 0
-326 430 0
-326 432 0
326 -432 -430 0
327 -328 0
327 -329 0
-327 329 328 0
-328 428 0
-328 432 0
328 -432 -428 0
-329 428 0
-329 430 0
329 -430 -428 0
330 438 -331 0
330 -438 331 0
-330 438 331 0
-330 -438 -331 0
331 436 -434 0
331 -436 434 0
-331 436 434 0
-331 -436 -434 0
332 -333 0
332 -334 0
-332 334 333 0
-333 436 0
-333 438 0
333 -438 -436 0
334 -335 0
334 -336 0
-334 336 335 0
-335 434 0
-335 438 0
335 -438 -434 0
-336 434 0
-336 436 0
336 -436 -434 0
337 444 -338 0
337 -444 338 0
-337 444 338 0
-337 -444 -338 0
338 442 -440 0
338 -442 440 0
-338 442 440 0
-338 -442 -440 0
339 -340 0
339 -341 0
-339 341 340 0
-340 442 0
-340 444 0
340 -444 -442 0
341 -342 0
341 -343 0
-341 343 342 0
-342 440 0
-342 444 0
342 -444 -440 0
-343 440 0
-343 442 0
343 -442 -440 0
-344 1 0
-344 22 0
344 -22 -1 0
344 0
345 346 0
-345 -346 0
346 521 446 0
346 -521 -446 0
-346 521 -446 0
-346 -521 446 0
347 348 0
-347 -348 0
348 522 447 0
348 -522 -447 0
-348 522 -447 0
-348 -522 447 0
349 350 0
-349 -350 0
350 523 448 0
350 -523 -448 0
-350 523 -448 0
-350 -523 448 0
351 352 0
-351 -352 0
352 524 449 0
352 -524 -449 0
-352 524 -449 0
-352 -524 449 0
353 354 0
-353 -354 0
354 525 450 0
354 -525 -450 0
-354 525 -450 0
-354 -525 450 0
355 356 0
-355 -356 0
356 526 451 0
356 -526 -451 0
-356 526 -451 0
-356 -526 451 0
357 358 0
-357 -358 0
358 527 452 0
358 -527 -452 0
-358 527 -452 0
-358 -527 452 0
359 360 0
-359 -360 0
360 528 453 0
360 -528 -453 0
-360 528 -453 0
-360 -528 453 0
361 362 0
-361 -362 0
362 529 454 0
362 -529 -454 0
-362 529 -454 0
-362 -529 454 0
363 364 0
-363 -364 0
364 530 455 0
364 -530 -455 0
-364 530 -455 0
-364 -530 455 0
365 366 0
-365 -366 0
366 531 456 0
366 -531 -456 0
-366 531 -456 0
-366 -531 456 0
367 368 0
-367 -368 0
368 532 457 0
368 -532 -457 0
-368 532 -457 0
-368 -532 457 0
369 370 0
-369 -370 0
370 533 458 0
370 -533 -458 0
-370 533 -458 0
-370 -533 458 0
371 372 0
-371 -372 0
372 534 459 0
372 -534 -459 0
-372 534 -459 0
-372 -534 459 0
373 374 0
-373 -374 0
374 535 460 0
374 -535 -460 0
-374 535 -460 0
-374 -535 460 0
375 376 0
-375 -376 0
376 536 461 0
376 -536 -461 0
-376 536 -461 0
-376 -536 461 0
377 378 0
-377 -378 0
378 537 462 0
378 -537 -462 0
-378 537 -462 0
-378 -537 462 0
379 380 0
-379 -380 0
380 538 463 0
380 -538 -463 0
-380 538 -463 0
-380 -538 463 0
381 382 0
-381 -382 0
382 539 464 0
382 -539 -464 0
-382 539 -464 0
-382 -539 464 0
383 384 0
-383 -384 0
384 540 465 0
384 -540 -465 0
-384 540 -465 0
-384 -540 465 0
385 386 0
-385 -386 0
386 541 466 0
386 -541 -466 0
-386 541 -466 0
-386 -541 466 0
387 388 0
-387 -388 0
388 543 468 0
388 -543 -468 0
-388 543 -468 0
-388 -543 468 0
389 390 0
-389 -390 0
390 545 470 0
390 -545 -470 0
-390 545 -470 0
-390 -545 470 0
391 392 0
-391 -392 0
392 556 481 0
392 -556 -481 0
-392 556 -481 0
-392 -556 481 0
393 394 0
-393 -394 0
394 575 500 0
394 -575 -500 0
-394 575 -500 0
-394 -575 500 0
-395 172 0
-395 196 0
395 -196 -172 0
395 0
396 397 0
-396 -397 0
397 588 513 0
397 -588 -513 0
-397 588 -513 0
-397 -588 513 0
398 399 0
-398 -399 0
399 549 474 0
399 -549 -474 0
-399 549 -474 0
-399 -549 474 0
400 401 0
-400 -401 0
401 560 485 0
401 -560 -485 0
-401 560 -485 0
-401 -560 485 0
402 403 0
-402 -403 0
403 579 504 0
403 -579 -504 0
-403 579 -504 0
-403 -579 504 0
404 405 0
-404 -405 0
405 569 494 0
405 -569 -494 0
-405 569 -494 0
-405 -569 494 0
406 407 0
-406 -407 0
407 589 514 0
407 -589 -514 0
-407 589 -514 0
-407 -589 514 0
408 409 0
-408 -409 0
409 550 475 0
409 -550 -475 0
-409 550 -475 0
-409 -550 475 0
410 411 0
-410 -411 0
411 561 486 0
411 -561 -486 0
-411 561 -486 0
-411 -561 486 0
412 413 0
-412 -413 0
413 580 505 0
413 -580 -505 0
-413 580 -505 0
-413 -580 505 0
414 415 0
-414 -415 0
415 570 495 0
415 -570 -495 0
-415 570 -495 0
-415 -570 495 0
416 417 0
-416 -417 0
417 591 516 0
417 -591 -516 0
-417 591 -516 0
-417 -591 516 0
418 419 0
-418 -419 0
419 552 477 0
419 -552 -477 0
-419 552 -477 0
-419 -552 477 0
420 421 0
-420 -421 0
421 563 488 0
421 -563 -488 0
-421 563 -488 0
-421 -563 488 0
422 423 0
-422 -423 0
423 582 507 0
423 -582 -507 0
-423 582 -507 0
-423 -582 507 0
424 425 0
-424 -425 0
425 572 497 0
425 -572 -497 0
-425 572 -497 0
-425 -572 497 0
426 427 0
-426 -427 0
427 593 518 0
427 -593 -518 0
-427 593 -518 0
-427 -593 518 0
428 429 0
-428 -429 0
429 554 479 0
429 -554 -479 0
-429 554 -479 0
-429 -554 479 0
430 431 0
-430 -431 0
431 565 490 0
431 -565 -490 0
-431 565 -490 0
-431 -565 490 0
432 433 0
-432 -433 0
433 584 509 0
433 -584 -509 0
-433 584 -509 0
-433 -584 509 0
434 435 0
-434 -435 0
435 574 499 0
435 -574 -499 0
-435 574 -499 0
-435 -574 499 0
436 437 0
-436 -437 0
437 594 519 0
437 -594 -519 0
-437 594 -519 0
-437 -594 519 0
438 439 0
-438 -439 0
439 555 480 0
439 -555 -480 0
-439 555 -480 0
-439 -555 480 0
440 441 0
-440 -441 0
441 566 491 0
441 -566 -491 0
-441 566 -491 0
-441 -566 491 0
442 443 0
-442 -443 0
443 585 510 0
443 -585 -510 0
-443 585 -510 0
-443 -585 510 0
444 445 0
-444 -445 0
445 595 520 0
445 -595 -520 0
-445 595 -520 0
-445 -595 520 0
446 513 -467 0
446 -513 467 0
-446 513 467 0
-446 -513 -467 0
447 474 -469 0
447 -474 469 0
-447 474 469 0
-447 -474 -469 0
448 485 -471 0
448 -485 471 0
-448 485 471 0
-448 -485 -471 0
449 504 -482 0
449 -504 482 0
-449 504 482 0
-449 -504 -482 0
450 501 -494 0
450 -501 494 0
-450 501 494 0
-450 -501 -494 0
451 514 -467 0
451 -514 467 0
-451 514 467 0
-451 -514 -467 0
452 475 -469 0
452 -475 469 0
-452 475 469 0
-452 -475 -469 0
453 486 -471 0
453 -486 471 0
-453 486 471 0
-453 -486 -471 0
454 505 -482 0
454 -505 482 0
-454 505 482 0
-454 -505 -482 0
455 501 -495 0
455 -501 495 0
-455 501 495 0
-455 -501 -495 0
456 516 -467 0
456 -516 467 0
-456 516 467 0
-456 -516 -467 0
457 477 -469 0
457 -477 469 0
-457 477 469 0
-457 -477 -469 0
458 488 -471 0
458 -488 471 0
-458 488 471 0
-458 -488 -471 0
459 507 -482 0
459 -507 482 0
-459 507 482 0
-459 -507 -482 0
460 501 -497 0
460 -501 497 0
-460 501 497 0
-460 -501 -497 0
461 518 -467 0
461 -518 467 0
-461 518 467 0
-461 -518 -467 0
462 479 -469 0
462 -479 469 0
-462 479 469 0
-462 -479 -469 0
463 490 -471 0
463 -490 471 0
-463 490 471 0
-463 -490 -471 0
464 509 -482 0
464 -509 482 0
-464 509 482 0
-464 -509 -482 0
465 501 -499 0
465 -501 499 0
-465 501 499 0
-465 -501 -499 0
466 519 -467 0
466 -519 467 0
-466 519 467 0
-466 -519 -467 0
467 492 -472 0
467 -492 472 0
-467 492 472 0
-467 -492 -472 0
468 480 -469 0
468 -480 469 0
-468 480 469 0
-468 -480 -469 0
469 511 -483 0
469 -511 483 0
-469 511 483 0
-469 -511 -483 0
470 491 -471 0
470 -491 471 0
-470 491 471 0
-470 -491 -471 0
471 502 -472 0
471 -502 472 0
-471 502 472 0
-471 -502 -472 0
472 476 -473 0
472 -476 473 0
-472 476 473 0
-472 -476 -473 0
473 475 -474 0
473 -475 474 0
-473 475 474 0
-473 -475 -474 0
476 478 -477 0
476 -478 477 0
-476 478 477 0
-476 -478 -477 0
478 480 -479 0
478 -480 479 0
-478 480 479 0
-478 -480 -479 0
481 510 -482 0
481 -510 482 0
-481 510 482 0
-481 -510 -482 0
482 492 -483 0
482 -492 483 0
-482 492 483 0
-482 -492 -483 0
483 487 -484 0
483 -487 484 0
-483 487 484 0
-483 -487 -484 0
484 486 -485 0
484 -486 485 0
-484 486 485 0
-484 -486 -485 0
487 489 -488 0
487 -489 488 0
-487 489 488 0
-487 -489 -488 0
489 491 -490 0
489 -491 490 0
-489 491 490 0
-489 -491 -490 0
492 496 -493 0
492 -496 493 0
-492 496 493 0
-492 -496 -493 0
493 495 -494 0
493 -495 494 0
-493 495 494 0
-493 -495 -494 0
496 498 -497 0
496 -498 497 0
-496 498 497 0
-496 -498 -497 0
498 520 -499 0
498 -520 499 0
-498 520 499 0
-498 -520 -499 0
500 520 -501 0
500 -520 501 0
-500 520 501 0
-500 -520 -501 0
501 511 -502 0
501 -511 502 0
-501 511 502 0
-501 -511 -502 0
502 506 -503 0
502 -506 503 0
-502 506 503 0
-502 -506 -503 0
503 505 -504 0
503 -505 504 0
-503 505 504 0
-503 -505 -504 0
506 508 -507 0
506 -508 507 0
-506 508 507 0
-506 -508 -507 0
508 510 -509 0
508 -510 509 0
-508 510 509 0
-508 -510 -509 0
511 515 -512 0
511 -515 512 0
-511 515 512 0
-511 -515 -512 0
512 514 -513 0
512 -514 513 0
-512 514 513 0
-512 -514 -513 0
515 517 -516 0
515 -517 516 0
-515 517 516 0
-515 -517 -516 0
517 519 -518 0
517 -519 518 0
-517 519 518 0
-517 -519 -518 0
521 588 -542 0
521 -588 542 0
-521 588 542 0
-521 -588 -542 0
522 549 -544 0
522 -549 544 0
-522 549 544 0
-522 -549 -544 0
523 560 -546 0
523 -560 546 0
-523 560 546 0
-523 -560 -546 0
524 579 -557 0
524 -579 557 0
-524 579 557 0
-524 -579 -557 0
525 576 -569 0
525 -576 569 0
-525 576 569 0
-525 -576 -569 0
526 589 -542 0
526 -589 542 0
-526 589 542 0
-526 -589 -542 0
527 550 -544 0
527 -550 544 0
-527 550 544 0
-527 -550 -544 0
528 561 -546 0
528 -561 546 0
-528 561 546 0
-528 -561 -546 0
529 580 -557 0
529 -580 557 0
-529 580 557 0
-529 -580 -557 0
530 576 -570 0
530 -576 570 0
-530 576 570 0
-530 -576 -570 0
531 591 -542 0
531 -591 542 0
-531 591 542 0
-531 -591 -542 0
532 552 -544 0
532 -552 544 0
-532 552 544 0
-532 -552 -544 0
533 563 -546 0
533 -563 546 0
-533 563 546 0
-533 -563 -546 0
534 582 -557 0
534 -582 557 0
-534 582 557 0
-534 -582 -557 0
535 576 -572 0
535 -576 572 0
-535 576 572 0
-535 -576 -572 0
536 593 -542 0
536 -593 542 0
-536 593 542 0
-536 -593 -542 0
537 554 -544 0
537 -554 544 0
-537 554 544 0
-537 -554 -544 0
538 565 -546 0
538 -565 546 0
-538 565 546 0
-538 -565 -546 0
539 584 -557 0
539 -584 557 0
-539 584 557 0
-539 -584 -557 0
540 576 -574 0
540 -576 574 0
-540 576 574 0
-540 -576 -574 0
541 594 -542 0
541 -594 542 0
-541 594 542 0
-541 -594 -542 0
542 567 -547 0
542 -567 547 0
-542 567 547 0
-542 -567 -547 0
543 555 -544 0
543 -555 544 0
-543 555 544 0
-543 -555 -544 0
544 586 -558 0
544 -586 558 0
-544 586 558 0
-544 -586 -558 0
545 566 -546 0
545 -566 546 0
-545 566 546 0
-545 -566 -546 0
546 577 -547 0
546 -577 547 0
-546 577 547 0
-546 -577 -547 0
547 551 -548 0
547 -551 548 0
-547 551 548 0
-547 -551 -548 0
548 550 -549 0
548 -550 549 0
-548 550 549 0
-548 -550 -549 0
551 553 -552 0
551 -553 552 0
-551 553 552 0
-551 -553 -552 0
553 555 -554 0
553 -555 554 0
-553 555 554 0
-553 -555 -554 0
556 585 -557 0
556 -585 557 0
-556 585 557 0
-556 -585 -557 0
557 567 -558 0
557 -567 558 0
-557 567 558 0
-557 -567 -558 0
558 562 -559 0
558 -562 559 0
-558 562 559 0
-558 -562 -559 0
559 561 -560 0
559 -561 560 0
-559 561 560 0
-559 -561 -560 0
562 564 -563 0
562 -564 563 0
-562 564 563 0
-562 -564 -563 0
564 566 -565 0
564 -566 565 0
-564 566 565 0
-564 -566 -565 0
567 571 -568 0
567 -571 568 0
-567 571 568 0
-567 -571 -568 0
568 570 -569 0
568 -570 569 0
-568 570 569 0
-568 -570 -569 0
571 573 -572 0
571 -573 572 0
-571 573 572 0
-571 -573 -572 0
573 595 -574 0
573 -595 574 0
-573 595 574 0
-573 -595 -574 0
575 595 -576 0
575 -595 576 0
-575 595 576 0
-575 -595 -576 0
576 586 -577 0
576 -586 577 0
-576 586 577 0
-576 -586 -577 0
577 581 -578 0
577 -581 578 0
-577 581 578 0
-577 -581 -578 0
578 580 -579 0
578 -580 579 0
-578 580 579 0
-578 -580 -579 0
581 583 -582 0
581 -583 582 0
-581 583 582 0
-581 -583 -582 0
583 585 -584 0
583 -585 584 0
-583 585 584 0
-583 -585 -584 0
586 590 -587 0
586 -590 587 0
-586 590 587 0
-586 -590 -587 0
587 589 -588 0
587 -589 588 0
-587 589 588 0
-587 -589 -588 0
590 592 -591 0
590 -592 591 0
-590 592 591 0
-590 -592 -591 0
592 594 -593 0
592 -594 593 0
-592 594 593 0
-592 -594 -593 0
